qbf_easy_train/easy_5955_SAT.qdimacs
p cnf 33 96
a 8 27 14 0
e 1 2 3 4 5 6 7 9 10 11 12 13 15 16 17 18 19 20 21 22 23 24 25 26 28 29 30 31 32 33 0
1 -2 -3 0
-1 2 -3 0
1 2 3 0
-1 -2 3 0
-3 4 -5 0
3 -4 -5 0
-3 -4 5 0
3 4 5 0
6 -4 0
6 -4 0
4 -6 0
1 6 -7 0
-1 -6 -7 0
1 -6 7 0
-1 6 7 0
-8 -4 -9 0
8 4 -9 0
-8 4 9 0
8 -4 9 0
11 9 0
11 10 0
-9 -10 -11 0
-12 7 0
-12 -11 0
-7 11 12 0
1 8 -13 0
-1 -8 -13 0
1 -8 13 0
-1 8 13 0
-14 13 0
-14 4 0
-13 -4 14 0
-15 -14 0
-15 -1 0
14 1 15 0
15 -16 -17 0
-15 16 -17 0
15 16 17 0
-15 -16 17 0
18 3 -19 0
-18 -3 -19 0
18 -3 19 0
-18 3 19 0
20 -8 0
20 -10 0
8 10 -20 0
-21 -13 0
-21 -4 0
13 4 21 0
22 8 0
22 21 0
-8 -21 -22 0
-23 20 0
-23 -22 0
-20 22 23 0
24 6 0
24 13 0
-6 -13 -24 0
8 24 -25 0
-8 -24 -25 0
8 -24 25 0
-8 24 25 0
-26 -23 0
-26 -25 0
23 25 26 0
-28 27 0
-28 15 0
-27 -15 28 0
26 28 -29 0
-26 -28 -29 0
26 -28 29 0
-26 28 29 0
-19 29 -30 0
19 -29 -30 0
-19 -29 30 0
19 29 30 0
17 -30 -31 0
-17 30 -31 0
17 30 31 0
-17 -30 31 0
-32 -12 0
-32 -31 0
12 31 32 0
-33 -5 0
-33 -32 0
5 32 33 0
23 -13 -22 -21 0
-32 20 12 -28 0
-8 -28 -29 -19 15 -31 -11 -3 0
-6 -1 23 -18 -28 21 30 0
23 12 17 -1 0
-14 3 -23 22 25 2 -26 0
-24 4 3 8 12 0
6 -3 31 0
10 -25 32 -16 1 7 -14 0
33 0
