sat_easy_train/easy_5955_SAT.dimacs
p cnf 123 409
2 -3 -4 0
-2 3 -4 0
2 3 4 0
-2 -3 4 0
1 -4 -5 0
-1 4 -5 0
1 4 5 0
-1 -4 5 0
8 6 0
8 -7 0
-6 7 -8 0
-9 -1 -10 0
9 1 -10 0
-9 1 10 0
9 -1 10 0
-11 -8 0
-11 10 0
8 -10 11 0
-14 12 0
-14 13 0
-12 -13 14 0
15 14 0
15 -14 0
-11 -15 -16 0
11 15 -16 0
-11 15 16 0
11 -15 16 0
19 -3 0
19 -18 0
3 18 -19 0
20 17 0
20 19 0
-17 -19 -20 0
-21 -20 0
-21 -13 0
20 13 21 0
22 -21 0
22 -19 0
21 19 -22 0
-23 -18 -24 0
23 18 -24 0
-23 18 24 0
23 -18 24 0
-25 -22 0
-25 -24 0
22 24 25 0
-26 17 0
-26 -12 0
-17 12 26 0
-28 -17 0
-28 -12 0
17 12 28 0
-2 28 -29 0
2 -28 -29 0
-2 -28 29 0
2 28 29 0
-30 27 0
-30 29 0
-27 -29 30 0
-26 30 -31 0
26 -30 -31 0
-26 -30 31 0
26 30 31 0
32 25 0
32 31 0
-25 -31 -32 0
-33 -16 0
-33 32 0
16 -32 33 0
34 -5 0
34 -33 0
5 33 -34 0
-35 2 0
-35 6 0
-2 -6 35 0
36 -24 0
36 9 0
24 -9 -36 0
37 -35 0
37 -36 0
35 36 -37 0
-38 -7 0
-38 15 0
7 -15 38 0
-39 37 0
-39 38 0
-37 -38 39 0
-40 17 0
-40 14 0
-17 -14 40 0
42 -9 0
42 41 0
9 -41 -42 0
-43 -42 0
-43 -18 0
42 18 43 0
-44 40 0
-44 -43 0
-40 43 44 0
-45 -39 0
-45 44 0
39 -44 45 0
-34 -45 -46 0
34 45 -46 0
-34 45 46 0
34 -45 46 0
-27 -21 -47 0
27 21 -47 0
-27 21 47 0
27 -21 47 0
49 -47 0
49 48 0
47 -48 -49 0
-50 -7 0
-50 2 0
7 -2 50 0
51 18 0
51 41 0
-18 -41 -51 0
2 51 -52 0
-2 -51 -52 0
2 -51 52 0
-2 51 52 0
53 50 0
53 52 0
-50 -52 -53 0
54 15 0
54 48 0
-15 -48 -54 0
-55 -54 0
-55 -2 0
54 2 55 0
-56 18 0
-56 -55 0
-18 55 56 0
57 -53 0
57 -56 0
53 56 -57 0
51 27 -58 0
-51 -27 -58 0
51 -27 58 0
-51 27 58 0
-59 -19 0
-59 13 0
19 -13 59 0
58 -59 -60 0
-58 59 -60 0
58 59 60 0
-58 -59 60 0
-61 -60 0
-61 2 0
60 -2 61 0
-62 -57 0
-62 -61 0
57 61 62 0
63 49 0
63 -62 0
-49 62 -63 0
64 46 0
64 -63 0
-46 63 -64 0
-65 -38 0
-65 -17 0
38 17 65 0
-66 36 0
-66 36 0
-36 66 0
66 -42 -67 0
-66 42 -67 0
66 42 67 0
-66 -42 67 0
-58 -67 -68 0
58 67 -68 0
-58 67 68 0
58 -67 68 0
69 -68 0
69 -19 0
68 19 -69 0
70 -21 0
70 -69 0
21 69 -70 0
71 -1 0
71 24 0
1 -24 -71 0
-71 12 -72 0
71 -12 -72 0
-71 -12 72 0
71 12 72 0
72 8 -73 0
-72 -8 -73 0
72 -8 73 0
-72 8 73 0
-73 11 -74 0
73 -11 -74 0
-73 -11 74 0
73 11 74 0
-70 -74 -75 0
70 74 -75 0
-70 74 75 0
70 -74 75 0
76 18 0
76 66 0
-18 -66 -76 0
77 9 0
77 10 0
-9 -10 -77 0
-78 -76 0
-78 -77 0
76 77 78 0
-79 -51 0
-79 15 0
51 -15 79 0
-80 78 0
-80 79 0
-78 -79 80 0
-75 -80 -81 0
75 80 -81 0
-75 80 81 0
75 -80 81 0
-82 65 0
-82 -81 0
-65 81 82 0
37 67 -83 0
-37 -67 -83 0
37 -67 83 0
-37 67 83 0
-84 41 -85 0
84 -41 -85 0
-84 -41 85 0
84 41 85 0
86 -85 0
86 59 0
85 -59 -86 0
83 -86 -87 0
-83 86 -87 0
83 86 87 0
-83 -86 87 0
82 -87 -88 0
-82 87 -88 0
82 87 88 0
-82 -87 88 0
-89 64 0
-89 88 0
-64 -88 89 0
-14 -10 -90 0
14 10 -90 0
-14 10 90 0
14 -10 90 0
-91 13 0
-91 9 0
-13 -9 91 0
92 -91 0
92 -37 0
91 37 -92 0
93 90 0
93 -92 0
-90 92 -93 0
94 -85 0
94 48 0
85 -48 -94 0
-95 -94 0
-95 10 0
94 -10 95 0
-96 -93 0
-96 -95 0
93 95 96 0
-27 -41 -97 0
27 41 -97 0
-27 41 97 0
27 -41 97 0
-98 97 0
-98 -13 0
-97 13 98 0
-99 85 0
-99 -98 0
-85 98 99 0
-100 13 0
-100 20 0
-13 -20 100 0
99 100 -101 0
-99 -100 -101 0
99 -100 101 0
-99 100 101 0
27 47 -102 0
-27 -47 -102 0
27 -47 102 0
-27 47 102 0
-102 -26 -103 0
102 26 -103 0
-102 26 103 0
102 -26 103 0
-104 48 0
-104 -85 0
-48 85 104 0
-103 -104 -105 0
103 104 -105 0
-103 104 105 0
103 -104 105 0
106 -101 0
106 105 0
101 -105 -106 0
107 96 0
107 106 0
-96 -106 -107 0
-108 19 0
-108 72 0
-19 -72 108 0
-59 -60 -109 0
59 60 -109 0
-59 60 109 0
59 -60 109 0
-110 -109 0
-110 -52 0
109 52 110 0
111 7 0
111 110 0
-7 -110 -111 0
113 111 0
113 112 0
-111 -112 -113 0
17 48 -114 0
-17 -48 -114 0
17 -48 114 0
-17 48 114 0
-115 -114 0
-115 91 0
114 -91 115 0
116 -113 0
116 -115 0
113 115 -116 0
117 7 0
117 -2 0
-7 2 -117 0
-13 8 -118 0
13 -8 -118 0
-13 -8 118 0
13 8 118 0
119 117 0
119 118 0
-117 -118 -119 0
116 -119 -120 0
-116 119 -120 0
116 119 120 0
-116 -119 120 0
108 -120 -121 0
-108 120 -121 0
108 120 121 0
-108 -120 121 0
122 107 0
122 -121 0
-107 121 -122 0
89 122 -123 0
-89 -122 -123 0
89 -122 123 0
-89 122 123 0
83 -48 93 -102 0
-31 108 0
72 108 -71 41 0
14 48 -27 58 0
-32 86 -34 -121 0
-17 39 34 72 -45 0
96 -6 -60 -31 0
112 70 89 94 -36 -15 0
44 76 0
-95 -70 42 54 113 58 0
-114 -62 111 109 0
73 -46 -78 0
-2 -116 58 -85 0
-46 -64 0
119 -53 123 0
-18 -35 36 -72 0
-51 81 -123 0
-71 15 0
-55 -9 34 -2 -89 7 0
-48 -44 0
-6 7 88 0
-108 44 41 36 0
55 -118 43 -3 0
77 -89 4 6 0
-19 -86 0
-111 108 -49 -94 -116 115 0
19 -22 61 90 -46 0
-68 31 -101 0
54 -60 -7 -43 -5 0
-76 17 0
37 -5 61 86 -93 0
10 -79 94 41 -83 0
-46 -62 -23 -25 0
39 -95 -42 0
57 2 0
100 -78 44 -74 0
-9 -25 -88 21 0
-67 -40 -43 -36 -47 79 0
-24 -93 0
48 -38 -24 0
-69 -86 76 0
38 -111 0
-111 -120 74 0
41 52 34 -65 115 17 0
-21 83 0
-99 43 -6 0
120 -43 -53 -97 -10 -44 0
72 -46 -26 0
22 63 -73 -103 87 -43 0
11 -113 0
-95 9 0
27 100 0
-42 116 92 0
123 0
